language Essence 1.3

letting blksize_delta be
        function(1 --> 10, 2 --> 10, 3 --> 10, 4 --> 10, 5 --> 10, 6 --> 10, 7 --> 10, 8 --> 10, 9 --> 10, 10 --> 10,
                 11 --> 10, 12 --> 10, 13 --> 10, 14 --> 10, 15 --> 10, 16 --> 10, 17 --> 10, 18 --> 10, 19 --> 10,
                 20 --> 10, 21 --> 10, 22 --> 10, 23 --> 10, 24 --> 10, 25 --> 10, 26 --> 10, 27 --> 10, 28 --> 10,
                 29 --> 10, 30 --> 10, 31 --> 10, 32 --> 10, 33 --> 10, 34 --> 10, 35 --> 10, 36 --> 10)
letting maxcars be
        function(1 --> 10, 2 --> 10, 3 --> 10, 4 --> 10, 5 --> 10, 6 --> 10, 7 --> 10, 8 --> 10, 9 --> 10, 10 --> 10,
                 11 --> 10, 12 --> 10, 13 --> 10, 14 --> 10, 15 --> 10, 16 --> 10, 17 --> 10, 18 --> 10, 19 --> 10,
                 20 --> 10, 21 --> 10, 22 --> 10, 23 --> 10, 24 --> 10, 25 --> 10, 26 --> 10, 27 --> 10, 28 --> 10,
                 29 --> 10, 30 --> 10, 31 --> 10, 32 --> 10, 33 --> 10, 34 --> 10, 35 --> 10, 36 --> 10)
letting n_cars be 126
letting n_classes be 26
letting n_options be 36
letting quantity be
        function(1 --> 3, 2 --> 3, 3 --> 3, 4 --> 8, 5 --> 3, 6 --> 3, 7 --> 3, 8 --> 3, 9 --> 3, 10 --> 3, 11 --> 3,
                 12 --> 3, 13 --> 12, 14 --> 4, 15 --> 3, 16 --> 3, 17 --> 3, 18 --> 3, 19 --> 3, 20 --> 3, 21 --> 3,
                 22 --> 3, 23 --> 6, 24 --> 13, 25 --> 13, 26 --> 13)
letting usage be
        relation((1, 19), (1, 24), (2, 1), (2, 26), (2, 29), (2, 32), (3, 17), (3, 19), (3, 22), (3, 24), (3, 28),
                 (3, 30), (4, 1), (4, 3), (4, 16), (4, 28), (4, 33), (5, 8), (5, 13), (5, 23), (5, 28), (6, 1), (6, 17),
                 (6, 23), (7, 29), (7, 33), (8, 8), (8, 12), (8, 25), (8, 35), (9, 1), (9, 4), (9, 28), (9, 35),
                 (10, 2), (10, 8), (10, 16), (10, 21), (10, 22), (10, 25), (11, 3), (11, 8), (11, 15), (11, 23),
                 (11, 28), (12, 5), (12, 19), (12, 36), (13, 1), (13, 6), (13, 13), (13, 29), (13, 36), (14, 2),
                 (14, 13), (14, 14), (14, 25), (15, 10), (15, 22), (15, 27), (15, 33), (16, 14), (16, 18), (16, 22),
                 (16, 24), (17, 11), (17, 14), (17, 18), (17, 35), (18, 1), (18, 5), (18, 12), (18, 16), (18, 17),
                 (18, 36), (19, 13), (19, 15), (19, 21), (19, 28), (20, 14), (20, 16), (20, 33), (21, 4), (21, 22),
                 (21, 23), (21, 36), (22, 27), (22, 32), (23, 9), (23, 20), (23, 31), (23, 34), (24, 8), (24, 14),
                 (24, 18), (24, 30), (24, 36), (25, 36), (26, 5), (26, 7), (26, 12), (26, 25), (26, 29), (26, 36))
$ Visualisation for usage
$  1 19
$  1 24
$  2  1
$  2 26
$  2 29
$  2 32
$  3 17
$  3 19
$  3 22
$  3 24
$  3 28
$  3 30
$  4  1
$  4  3
$  4 16
$  4 28
$  4 33
$  5  8
$  5 13
$  5 23
$  5 28
$  6  1
$  6 17
$  6 23
$  7 29
$  7 33
$  8  8
$  8 12
$  8 25
$  8 35
$  9  1
$  9  4
$  9 28
$  9 35
$ 10  2
$ 10  8
$ 10 16
$ 10 21
$ 10 22
$ 10 25
$ 11  3
$ 11  8
$ 11 15
$ 11 23
$ 11 28
$ 12  5
$ 12 19
$ 12 36
$ 13  1
$ 13  6
$ 13 13
$ 13 29
$ 13 36
$ 14  2
$ 14 13
$ 14 14
$ 14 25
$ 15 10
$ 15 22
$ 15 27
$ 15 33
$ 16 14
$ 16 18
$ 16 22
$ 16 24
$ 17 11
$ 17 14
$ 17 18
$ 17 35
$ 18  1
$ 18  5
$ 18 12
$ 18 16
$ 18 17
$ 18 36
$ 19 13
$ 19 15
$ 19 21
$ 19 28
$ 20 14
$ 20 16
$ 20 33
$ 21  4
$ 21 22
$ 21 23
$ 21 36
$ 22 27
$ 22 32
$ 23  9
$ 23 20
$ 23 31
$ 23 34
$ 24  8
$ 24 14
$ 24 18
$ 24 30
$ 24 36
$ 25 36
$ 26  5
$ 26  7
$ 26 12
$ 26 25
$ 26 29
$ 26 36

